
  22   10
  10   10   10   10   10   10   10   10   10   10

   0   0   0   0   0   0   0   0   0   0   0   6 2 4 6 7 9 10 
   8   0   0   0   0  10   0   0   0   0   0   2 5 3 
   3   0   0   0   0   0  10   0   0   0   0   7 21 20 19 18 17 14 12 
   6   0   0   0   0   0  10   0   0   0   0   6 21 19 18 17 12 11 
  10   0   0   0   0   0   0   0   0   0  10   4 21 20 12 8 
   3   0   0   0  10   0   0   0   0   0   0   5 20 18 14 12 11 
   4   0   0   0   0  10   0   0   0   0   0   4 18 17 16 12 
   5   0   0   0   0   0   0   0   0   0  10   2 17 11 
  10   0   0   0   0   0   0   0  10   0   0   2 19 11 
   8   0   0   0  10   0   0   0   0   0   0   1 11 
   3   0   0   0   0   0   0   0   0  10   0   2 16 13 
   2   0   0   0  10   0   0   0   0   0   0   1 13 
  10   0   0   0   0  10   0   0   0   0   0   1 15 
   5   0   0   0   0   0   0   0   0  10   0   1 16 
   8  10   0   0   0   0   0   0   0   0   0   1 22
   3   0   0   0   0   0   0   0   0   0  10   1 22
   6   0   0   0   0   0  10   0   0   0   0   1 22
   6  10   0   0   0   0   0   0   0   0   0   1 22
   5   0   0   0   0   0   0  10   0   0   0   1 22
   9   0   0  10   0   0   0   0   0   0   0   1 22
   8   0   0   0  10   0   0   0   0   0   0   1 22
   0   0   0   0   0   0   0   0   0   0   0   0 
